200
1000
164
163
162
162
160
159
159
159
158
157
157
157
156
156
156
155
154
154
153
153
152
152
152
152
151
151
151
150
150
150
150
148
148
147
147
147
147
146
145
145
145
145
144
144
143
142
142
142
142
139
139
139
139
138
137
137
137
136
136
135
133
132
132
130
130
130
129
129
127
127
126
126
125
125
125
123
123
122
122
122
121
121
120
120
120
119
119
118
118
118
116
116
116
115
115
115
114
113
111
111
111
111
111
110
109
108
107
107
107
107
106
105
105
105
104
103
101
101
100
100
99
98
97
95
95
94
93
93
92
92
92
92
90
90
89
89
89
88
88
87
87
87
86
86
86
85
84
84
84
84
83
82
81
80
80
79
79
78
78
77
77
77
77
76
75
75
74
74
73
73
73
73
71
71
71
71
70
70
70
69
67
66
66
66
66
66
65
64
64
63
63
62
61
60
59
59
58
58
57
57
